n = 8;
budget = 1200000;
groceries = [|3680,160,130,280,186,3033|1530,90,135,70,190,1454|3762,126,612,90,177,1194|3088,120,112,240,193,3264|5432,16,208,504,62,2675|1416,104,232,8,200,2347|2392,104,224,120,157,3456|2152,64,456,8,77,3850|];
requirements = [|35160,40700|912,1214|4800,5280|1368,1636|];